c Sudoku solution
p cnf 729 0
149 0
197 0
222 0
267 0
286 0
291 0
313 0
348 0
351 0
392 0
457 0
468 0
499 0
537 0
327 0
543 0
582 0
611 0
654 0
785 0
835 0
893 0
921 0
131 0
955 0
253 0
962 0
763 0
933 0
152 0
987 0
677 0
998 0
526 0
559 0
869 0
561 0
389 0
756 0
858 0
944 0
794 0
881 0
741 0
847 0
717 0
824 0
336 0
166 0
245 0
364 0
375 0
665 0
696 0
446 0
642 0
471 0
173 0
595 0
518 0
639 0
623 0
425 0
483 0
688 0
574 0
115 0
128 0
184 0
278 0
729 0
738 0
812 0
916 0
772 0
876 0
979 0
414 0
432 0
219 0
234 0
